1638
38 99 21 53 8 19 31 66 43 52 2 74 40 23 61 58 25 1 63 93 24 12 6 76 22 56 82 86 69 87 42 62 14 44 20 91 30 73 97 35 96 88 72 39 64 85 70 77 48 65 60 54 75 16 90 10 49 98 4 7 89 81 26 95 41 51 37 15 47 46 9 68 17 11 28 50 3 80 92 83 18 67 59 79 94 71 55 32 27 57 13 33 45 84 78 34 5 36 29 
